6 16 4 10
12 15 2 18 5 16 14 12 4 5 10 9 6 8 6 4 
14.07 13.79 6.26 9.63 6.92 2.74 8.11 3.92 2.13 9.1 8.13 11.45 6.54 3.41 10.87 3.71 
0.4 4.08 0.84 8.29 5.31 0.96 4.18 11.51 0.11 8.72 2.42 14.95 7.12 2.25 12.97 3.7 
13.5 6.59 11.36 5.32 12.14 9.09 13.49 0.21 7.18 13.13 8.53 4.75 3.06 14.49 9.35 8.03 
13.31 14.54 3.78 15.09 13.05 0.9 2.45 5.67 15.07 10.18 13.06 11.14 13.62 10.64 6.71 9.64 
8 8 8 8 8 8 8 8 8 8 8 8 8 8 8 8 
15.58 0.8 1.26 5.82 5.93 5.54 9.32 5.3 0.92 6.22 5.1 8.91 0.16 0.72 4.64 6.12 
1 1 1 1 1 1 1 1 1 1 1 1 1 1 1 1 
1 1 1 1 1 1 1 1 1 1 1 1 1 1 1 1 
1 1 1 1 1 1 1 1 1 1 1 1 1 1 1 1 
1 1 1 1 1 1 1 1 1 1 1 1 1 1 1 1 
1 1 1 1 1 1 1 1 1 1 1 1 1 1 1 1 
1 1 1 1 1 1 1 1 1 1 1 1 1 1 1 1 
0.01 0.01 0.01 0.01 0.01 0.01 0.01 0.01 0.01 0.01 0.01 0.01 0.01 0.01 0.01 0.01 
0.02 0.02 0.02 0.02 0.02 0.02 0.02 0.02 0.02 0.02 0.02 0.02 0.02 0.02 0.02 0.02 
0.03 0.03 0.03 0.03 0.03 0.03 0.03 0.03 0.03 0.03 0.03 0.03 0.03 0.03 0.03 0.03 
0.04 0.04 0.04 0.04 0.04 0.04 0.04 0.04 0.04 0.04 0.04 0.04 0.04 0.04 0.04 0.04 
0.05 0.05 0.05 0.05 0.05 0.05 0.05 0.05 0.05 0.05 0.05 0.05 0.05 0.05 0.05 0.05 
1 1 1 1 1 1 1 1 1 1 1 1 1 1 1 1 
